(set-logic QF_S)
(set-option :strings-exp true)
(set-option :produce-models true)
(declare-fun sigmaStar_1 () String)
(declare-fun sigmaStar_2 () String)
(assert (str.in.re sigmaStar_2 (re.++ (re.* re.allchar) (re.++ (str.to.re "\x2f\x65\x76\x69\x6c") (re.* re.allchar)))))
(assert (< (* 2 (str.indexof sigmaStar_2  "\x61" 0)) (str.len sigmaStar_2 )))
(check-sat)
(get-model)
